34 5 83 143 176 125 84 191 144 107 155 109 
62 134 163 112 16 81 42 123 89 59 
48 38 150 184 199 37 135 137 111 63 166 
57 106 180 6 122 90 17 67 175 73 91 
177 192 22 61 179 138 53 55 181 
93 44 160 194 145 195 52 102 76 
120 119 40 97 19 105 108 36 82 
32 12 116 11 147 167 142 183 185 
101 159 88 25 77 87 15 74 172 
148 26 152 151 7 1 99 104 41 
164 66 173 146 153 169 68 189 171 86 
131 18 8 126 33 187 49 114 196 
190 78 129 43 71 140 117 149 85 
21 23 75 115 70 60 198 56 
20 182 156 24 51 188 158 133 
30 28 50 47 4 121 165 95 10 72 
113 178 58 35 2 139 92 200 124 
161 3 13 69 100 64 162 65 94 
170 27 80 31 168 79 29 39 
103 197 46 128 174 136 
45 54 186 132 130 
118 193 14 96 110 
154 127 98 157 
141 9 

